NAME: ACTUAL_TOURS/amz2069
TYPE: TOUR
COMMENT: RouteID_dbe5d321-00bf-4b55-9f06-86748be6ab7a
DIMENSION: 137
TOUR_SECTION
98
126
44
1
11
71
29
129
122
107
95
42
30
69
101
105
132
121
41
114
87
5
130
109
102
19
21
124
46
97
2
4
3
47
67
33
25
20
26
86
93
65
111
79
82
74
113
60
13
53
18
70
133
23
39
7
66
35
9
135
12
131
32
64
28
54
117
10
116
52
75
49
24
110
50
99
128
6
38
106
51
34
22
104
94
127
96
108
57
59
78
92
136
43
134
91
14
83
62
112
120
84
118
123
15
37
27
80
89
61
55
45
58
48
31
56
85
16
8
63
100
125
115
40
81
76
73
72
17
90
119
36
77
88
137
103
68
-1
EOF
